(set-logic ALL)
(declare-const elements String)
(declare-const col String)
(assert (< 0 (str.len elements)))
(assert (not (< (str.len (str.at elements 0)) 0)))
(assert (not (= (+ 0 (str.indexof (str.at elements 0) " " 0)) (- 1))))
(check-sat)
(get-value (elements))
(get-value (col))
